s = 11+1;
n = 3;
swap = 1;
% 20 instructions
% 5 registers
% https://github.com/google-deepmind/alphadev/blob/main/sort_functions_test.cc
perm_count = 8;
init_perm = 
 [| false, false, false,
  | false, false, true,
  | false, true, false,
  | false, true, true,
  | true, false, false,
  | true, false, true,
  | true, true, false,
  | true, true, true, |];